
(set-logic HORN)
(declare-fun zero_50 () Int)
(declare-fun succ_49 (Int) Int)
(declare-datatypes ((Bool_162 0)) (((false_162) (true_162))))
(declare-fun diseqBool_68 (Bool_162 Bool_162) Bool)
(declare-fun isfalse_68 (Bool_162) Bool)
(declare-fun istrue_68 (Bool_162) Bool)
(assert (isfalse_68 false_162))
(assert (istrue_68 true_162))
(assert (diseqBool_68 false_162 true_162))
(assert (diseqBool_68 true_162 false_162))
(declare-fun and_162 (Bool_162 Bool_162 Bool_162) Bool)
(declare-fun or_164 (Bool_162 Bool_162 Bool_162) Bool)
(declare-fun hence_162 (Bool_162 Bool_162 Bool_162) Bool)
(declare-fun not_163 (Bool_162 Bool_162) Bool)
(assert (and_162 false_162 false_162 false_162))
(assert (and_162 false_162 true_162 false_162))
(assert (and_162 false_162 false_162 true_162))
(assert (and_162 true_162 true_162 true_162))
(assert (or_164 false_162 false_162 false_162))
(assert (or_164 true_162 true_162 false_162))
(assert (or_164 true_162 false_162 true_162))
(assert (or_164 true_162 true_162 true_162))
(assert (hence_162 true_162 false_162 false_162))
(assert (hence_162 false_162 true_162 false_162))
(assert (hence_162 true_162 false_162 true_162))
(assert (hence_162 true_162 true_162 true_162))
(assert (not_163 true_162 false_162))
(assert (not_163 false_162 true_162))
(declare-fun diseqInt (Int Int) Bool)
(declare-fun p_143 (Int Int) Bool)
(declare-fun iszero_49 (Int) Bool)
(declare-fun issucc_49 (Int) Bool)
(assert (forall ((x_25314 Int))
	(p_143 x_25314 (succ_49 x_25314))))
(assert (iszero_49 zero_50))
(assert (forall ((x_25316 Int))
	(issucc_49 (succ_49 x_25316))))
(assert (forall ((x_25317 Int))
	(diseqInt zero_50 (succ_49 x_25317))))
(assert (forall ((x_25318 Int))
	(diseqInt (succ_49 x_25318) zero_50)))
(assert (forall ((x_25319 Int) (x_25320 Int))
	(=> (diseqInt x_25319 x_25320) (diseqInt (succ_49 x_25319) (succ_49 x_25320)))))
(declare-fun lt_168 (Bool_162 Int Int) Bool)
(assert (forall ((x_25301 Bool_162) (n_55 Int) (z_917 Int))
	(=> (lt_168 x_25301 n_55 z_917) (lt_168 x_25301 (succ_49 n_55) (succ_49 z_917)))))
(assert (forall ((z_917 Int))
	(lt_168 true_162 zero_50 (succ_49 z_917))))
(assert (forall ((x_25298 Int))
	(lt_168 false_162 x_25298 zero_50)))
(declare-fun gt_163 (Bool_162 Int Int) Bool)
(assert (forall ((x_25305 Bool_162) (x_25299 Int) (y_937 Int))
	(=> (lt_168 x_25305 y_937 x_25299) (gt_163 x_25305 x_25299 y_937))))
(assert (forall ((x_25300 Int) (y_938 Int) (z_918 Int))
	(=> (and true (gt_163 true_162 x_25300 y_938) (gt_163 true_162 y_938 z_918) (gt_163 false_162 x_25300 z_918)) false)))
(check-sat)
